4 
5  03 25 41 55 
6  04 09 14 19 25 29 35 39 44 49 54 59 
7  04 10 14 20 24 29 34 39 44 49 54 59 
8  04 09 14 19 24 29 34 39 44 49 54 59 
9  04 12 19 27 34 42 50 58 
10  05 13 22 29 37 44 52 59 
11  07 14 22 29 37 44 52 59 
12  07 14 22 29 37 44 52 59 
13  07 14 22 29 37 44 52 59 
14  07 14 22 29 38 45 50 55 
15  00 05 10 14 20 25 29 35 40 44 50 55 59 
16  05 10 14 20 25 29 35 40 44 50 55 59 
17  05 10 14 20 25 29 35 40 44 50 55 59 
18  05 10 14 20 25 29 35 40 44 50 55 
19  04 09 16 23 31 39 46 55 
20  04 13 21 28 35 43 51 58 
21  06 13 21 28 36 43 55 
22  10 25 40 55 
23  10 25 
0 
